n_res = 7;
rcap = [17, 18, 20, 19, 21, 80, 83];
rtype = [1, 1, 1, 1, 1, 2, 2];
n_tasks = 16;
modes = [ {1, 2, 3}, {4, 5, 6}, {7, 8, 9}, {10, 11, 12}, {13, 14, 15}, {16, 17, 18}, {19, 20, 21}, {22, 23, 24}, {25, 26, 27}, {28, 29, 30}, {31, 32, 33}, {34, 35, 36}, {37, 38, 39}, {40, 41, 42}, {43, 44, 45}, {46, 47, 48} ];
succ = [ {4, 5, 6}, {5, 7, 8}, {5, 13, 14}, {8, 10}, {11}, {8, 14, 15}, {10, 11, 13}, {9}, {11, 12}, {14, 15, 16}, {16}, {13}, {16}, {}, {}, {} ];
n_opt = 48;
dur = [6, 6, 9, 8, 8, 10, 3, 3, 5, 1, 6, 9, 2, 9, 10, 1, 5, 10, 7, 7, 10, 1, 4, 9, 5, 9, 10, 2, 6, 9, 4, 5, 9, 1, 5, 8, 1, 1, 2, 3, 8, 10, 1, 5, 6, 1, 1, 9];
rreq = [|  0,  5,  0,  0,  0,  8,  6,  0,  0,  9,  0,  8,  6,  0,  0,  4,  0,  0,  0,  0,  0,  9,  8,  0,  0,  0,  6,  8,  7,  6,  6,  0,  0,  7,  1,  0,  0,  0,  3,  0,  0,  0,  6,  0,  0,  0,  0,  7
        |  7,  0,  0,  7,  6,  5,  4,  4,  0,  7,  1,  0,  8,  3,  0,  0,  0,  0,  0,  0,  0,  2,  0,  0,  0,  5,  2,  0,  0,  0,  0,  0,  0,  4,  3,  2,  5,  6,  0,  8,  0,  0,  0,  0,  8,  0, 10,  0
        |  0,  0,  4,  6,  0,  0,  6,  6,  4,  6,  0,  3,  0,  0,  2,  0, 10,  0,  7,  6,  0,  8,  6,  0,  6,  0,  6,  0,  5,  0,  0,  3,  2,  8,  7,  0,  0,  1,  0,  0,  0,  7,  6,  5,  4,  2,  0,  2
        |  0,  0,  1,  0,  0,  0,  9,  0,  6,  0,  3,  2,  0,  0,  0,  0,  9,  7,  0,  0, 10,  6,  4,  0,  0,  4,  2,  7,  5,  0,  2,  0,  0,  5,  0,  0,  9,  9,  9,  6,  4,  2,  0,  0,  0,  0,  0,  9
        |  9,  8,  7,  0,  6,  6,  9,  0,  9,  1,  1,  1,  4,  0,  2,  5,  4,  2,  6,  6,  0,  0,  4,  3,  4,  0,  0,  9,  8,  8,  7,  6,  0,  9,  0,  8,  0,  0,  0,  0,  6,  0,  0,  3,  0,  4,  0,  5
        |  6,  6,  6, 10,  9,  6,  2,  3,  2,  6,  4,  1,  8,  6,  5,  5,  4,  4,  6,  7,  3,  9,  8,  7,  9,  8,  5,  8,  6,  3,  6,  6,  5,  3,  3,  2,  7,  6,  6,  8,  5,  4,  8,  6,  6,  5,  6,  5
        |  8,  8,  8,  5,  5,  5,  5,  5,  3, 10, 10, 10,  5,  3,  3,  3,  3,  2,  6,  7,  5, 10,  8,  6,  7,  7,  6,  7,  7,  5,  7,  7,  6,  6,  5,  4,  3,  3,  1,  7,  5,  4,  8,  6,  3,  9,  9,  4 |];
